(set-info :smt-lib-version 2.6)
(set-logic UFDTLIA)
(set-info :source |
Generated by: Pierre Carbonnelle
Generated on: 2026-04-28
Generator: https://github.com/xmt-lib/benchmarks
Application: industrial configuration problem
Target solver: Z3
Publications: https://arxiv.org/abs/2602.19102
Time limit: 300
From the DIRT benchmark used to evaluate grounders
|)
(set-info :license "https://creativecommons.org/licenses/by/4.0/")
(set-info :category "crafted")
(set-info :status sat)

(declare-datatype Node ( (a0) (a1) (a2) (a3) (a4) (a5) (a6) (a7) (a8) (a9) (a10) (a11) (a12) (a13) (a14) (a15) (a16) (a17) (a18) (a19) (a20) (a21) (a22) (a23) (a24) (a25) (a26) (a27) (a28) (a29) (a30) (a31) (a32) (a33) (a34) (a35) (a36) (a37) (a38) (a39) (a40) (a41) (a42) (a43) (a44) (a45) (a46) (a47) (a48) (a49) (a50) (a51) (a52) (a53) (a54) (a55) (a56) (a57) (a58) (a59) (a60) (a61) (a62) (a63) (a64) (a65) (a66) (a67) (a68) (a69) (a70) (a71) (a72) (a73) (a74) (a75) (a76) (a77) (a78) (a79) (a80) (a81) (a82) (a83) (a84) (a85) (a86) (a87) (a88) (a89) (a90) (a91) (a92) (a93) (a94) (a95) (a96) (a97) (a98) (a99) (a100) (a101) (a102) (a103) (a104) (a105) (a106) (a107) (a108) (a109) (a110) (a111) (a112) (a113) (a114) (a115) (a116) (a117) (a118) (a119) (a120) (a121) (a122) (a123) (a124) (a125) (a126) (a127) (a128) (a129) (a130) (a131) (a132) (a133) (a134) (a135) (a136) (a137) (a138) (a139) (a140) (a141) (a142) (a143) (a144) (a145) (a146) (a147) (a148) (a149) (a150) (a151) (a152) (a153) (a154) (a155) (a156) (a157) (a158) (a159) (a160) (a161) (a162) (a163) (a164) (a165) (a166) (a167) (a168) (a169) (a170) (a171) (a172) (a173) (a174) (a175) (a176) (a177) (a178) (a179) (a180) (a181) (a182) (a183) (a184) (a185) (a186) (a187) (a188) (a189) (a190) (a191) (a192) (a193) (a194) (a195) (a196) (a197) (a198) (a199) (a200) (a201) (a202) (a203) (a204) (a205) (a206) (a207) (a208) (a209) (a210) (a211) (a212) (a213) (a214) (a215) (a216) (a217) (a218) (a219) (a220) (a221) (a222) (a223) (a224) (a225) (a226) (a227) (a228) (a229) (a230) (a231) (a232) (a233) (a234) (a235) (a236) (a237) (a238) (a239) (a240) (a241) (a242) (a243) (a244) (a245) (a246) (a247) (a248) (a249) ))
(define-fun edge ((x Node) (y Node)) Bool (or
  (and (= x a0) (= y a1))
  (and (= x a0) (= y a2))
  (and (= x a1) (= y a2))
  (and (= x a1) (= y a3))
  (and (= x a2) (= y a3))
  (and (= x a2) (= y a4))
  (and (= x a3) (= y a4))
  (and (= x a3) (= y a5))
  (and (= x a4) (= y a5))
  (and (= x a4) (= y a6))
  (and (= x a5) (= y a6))
  (and (= x a5) (= y a7))
  (and (= x a6) (= y a7))
  (and (= x a6) (= y a8))
  (and (= x a7) (= y a8))
  (and (= x a7) (= y a9))
  (and (= x a8) (= y a9))
  (and (= x a8) (= y a10))
  (and (= x a9) (= y a10))
  (and (= x a9) (= y a11))
  (and (= x a10) (= y a11))
  (and (= x a10) (= y a12))
  (and (= x a11) (= y a12))
  (and (= x a11) (= y a13))
  (and (= x a12) (= y a13))
  (and (= x a12) (= y a14))
  (and (= x a13) (= y a14))
  (and (= x a13) (= y a15))
  (and (= x a14) (= y a15))
  (and (= x a14) (= y a16))
  (and (= x a15) (= y a16))
  (and (= x a15) (= y a17))
  (and (= x a16) (= y a17))
  (and (= x a16) (= y a18))
  (and (= x a17) (= y a18))
  (and (= x a17) (= y a19))
  (and (= x a18) (= y a19))
  (and (= x a18) (= y a20))
  (and (= x a19) (= y a20))
  (and (= x a19) (= y a21))
  (and (= x a20) (= y a21))
  (and (= x a20) (= y a22))
  (and (= x a21) (= y a22))
  (and (= x a21) (= y a23))
  (and (= x a22) (= y a23))
  (and (= x a22) (= y a24))
  (and (= x a23) (= y a24))
  (and (= x a23) (= y a25))
  (and (= x a24) (= y a25))
  (and (= x a24) (= y a26))
  (and (= x a25) (= y a26))
  (and (= x a25) (= y a27))
  (and (= x a26) (= y a27))
  (and (= x a26) (= y a28))
  (and (= x a27) (= y a28))
  (and (= x a27) (= y a29))
  (and (= x a28) (= y a29))
  (and (= x a28) (= y a30))
  (and (= x a29) (= y a30))
  (and (= x a29) (= y a31))
  (and (= x a30) (= y a31))
  (and (= x a30) (= y a32))
  (and (= x a31) (= y a32))
  (and (= x a31) (= y a33))
  (and (= x a32) (= y a33))
  (and (= x a32) (= y a34))
  (and (= x a33) (= y a34))
  (and (= x a33) (= y a35))
  (and (= x a34) (= y a35))
  (and (= x a34) (= y a36))
  (and (= x a35) (= y a36))
  (and (= x a35) (= y a37))
  (and (= x a36) (= y a37))
  (and (= x a36) (= y a38))
  (and (= x a37) (= y a38))
  (and (= x a37) (= y a39))
  (and (= x a38) (= y a39))
  (and (= x a38) (= y a40))
  (and (= x a39) (= y a40))
  (and (= x a39) (= y a41))
  (and (= x a40) (= y a41))
  (and (= x a40) (= y a42))
  (and (= x a41) (= y a42))
  (and (= x a41) (= y a43))
  (and (= x a42) (= y a43))
  (and (= x a42) (= y a44))
  (and (= x a43) (= y a44))
  (and (= x a43) (= y a45))
  (and (= x a44) (= y a45))
  (and (= x a44) (= y a46))
  (and (= x a45) (= y a46))
  (and (= x a45) (= y a47))
  (and (= x a46) (= y a47))
  (and (= x a46) (= y a48))
  (and (= x a47) (= y a48))
  (and (= x a47) (= y a49))
  (and (= x a48) (= y a49))
  (and (= x a48) (= y a50))
  (and (= x a49) (= y a50))
  (and (= x a49) (= y a51))
  (and (= x a50) (= y a51))
  (and (= x a50) (= y a52))
  (and (= x a51) (= y a52))
  (and (= x a51) (= y a53))
  (and (= x a52) (= y a53))
  (and (= x a52) (= y a54))
  (and (= x a53) (= y a54))
  (and (= x a53) (= y a55))
  (and (= x a54) (= y a55))
  (and (= x a54) (= y a56))
  (and (= x a55) (= y a56))
  (and (= x a55) (= y a57))
  (and (= x a56) (= y a57))
  (and (= x a56) (= y a58))
  (and (= x a57) (= y a58))
  (and (= x a57) (= y a59))
  (and (= x a58) (= y a59))
  (and (= x a58) (= y a60))
  (and (= x a59) (= y a60))
  (and (= x a59) (= y a61))
  (and (= x a60) (= y a61))
  (and (= x a60) (= y a62))
  (and (= x a61) (= y a62))
  (and (= x a61) (= y a63))
  (and (= x a62) (= y a63))
  (and (= x a62) (= y a64))
  (and (= x a63) (= y a64))
  (and (= x a63) (= y a65))
  (and (= x a64) (= y a65))
  (and (= x a64) (= y a66))
  (and (= x a65) (= y a66))
  (and (= x a65) (= y a67))
  (and (= x a66) (= y a67))
  (and (= x a66) (= y a68))
  (and (= x a67) (= y a68))
  (and (= x a67) (= y a69))
  (and (= x a68) (= y a69))
  (and (= x a68) (= y a70))
  (and (= x a69) (= y a70))
  (and (= x a69) (= y a71))
  (and (= x a70) (= y a71))
  (and (= x a70) (= y a72))
  (and (= x a71) (= y a72))
  (and (= x a71) (= y a73))
  (and (= x a72) (= y a73))
  (and (= x a72) (= y a74))
  (and (= x a73) (= y a74))
  (and (= x a73) (= y a75))
  (and (= x a74) (= y a75))
  (and (= x a74) (= y a76))
  (and (= x a75) (= y a76))
  (and (= x a75) (= y a77))
  (and (= x a76) (= y a77))
  (and (= x a76) (= y a78))
  (and (= x a77) (= y a78))
  (and (= x a77) (= y a79))
  (and (= x a78) (= y a79))
  (and (= x a78) (= y a80))
  (and (= x a79) (= y a80))
  (and (= x a79) (= y a81))
  (and (= x a80) (= y a81))
  (and (= x a80) (= y a82))
  (and (= x a81) (= y a82))
  (and (= x a81) (= y a83))
  (and (= x a82) (= y a83))
  (and (= x a82) (= y a84))
  (and (= x a83) (= y a84))
  (and (= x a83) (= y a85))
  (and (= x a84) (= y a85))
  (and (= x a84) (= y a86))
  (and (= x a85) (= y a86))
  (and (= x a85) (= y a87))
  (and (= x a86) (= y a87))
  (and (= x a86) (= y a88))
  (and (= x a87) (= y a88))
  (and (= x a87) (= y a89))
  (and (= x a88) (= y a89))
  (and (= x a88) (= y a90))
  (and (= x a89) (= y a90))
  (and (= x a89) (= y a91))
  (and (= x a90) (= y a91))
  (and (= x a90) (= y a92))
  (and (= x a91) (= y a92))
  (and (= x a91) (= y a93))
  (and (= x a92) (= y a93))
  (and (= x a92) (= y a94))
  (and (= x a93) (= y a94))
  (and (= x a93) (= y a95))
  (and (= x a94) (= y a95))
  (and (= x a94) (= y a96))
  (and (= x a95) (= y a96))
  (and (= x a95) (= y a97))
  (and (= x a96) (= y a97))
  (and (= x a96) (= y a98))
  (and (= x a97) (= y a98))
  (and (= x a97) (= y a99))
  (and (= x a98) (= y a99))
  (and (= x a98) (= y a100))
  (and (= x a99) (= y a100))
  (and (= x a99) (= y a101))
  (and (= x a100) (= y a101))
  (and (= x a100) (= y a102))
  (and (= x a101) (= y a102))
  (and (= x a101) (= y a103))
  (and (= x a102) (= y a103))
  (and (= x a102) (= y a104))
  (and (= x a103) (= y a104))
  (and (= x a103) (= y a105))
  (and (= x a104) (= y a105))
  (and (= x a104) (= y a106))
  (and (= x a105) (= y a106))
  (and (= x a105) (= y a107))
  (and (= x a106) (= y a107))
  (and (= x a106) (= y a108))
  (and (= x a107) (= y a108))
  (and (= x a107) (= y a109))
  (and (= x a108) (= y a109))
  (and (= x a108) (= y a110))
  (and (= x a109) (= y a110))
  (and (= x a109) (= y a111))
  (and (= x a110) (= y a111))
  (and (= x a110) (= y a112))
  (and (= x a111) (= y a112))
  (and (= x a111) (= y a113))
  (and (= x a112) (= y a113))
  (and (= x a112) (= y a114))
  (and (= x a113) (= y a114))
  (and (= x a113) (= y a115))
  (and (= x a114) (= y a115))
  (and (= x a114) (= y a116))
  (and (= x a115) (= y a116))
  (and (= x a115) (= y a117))
  (and (= x a116) (= y a117))
  (and (= x a116) (= y a118))
  (and (= x a117) (= y a118))
  (and (= x a117) (= y a119))
  (and (= x a118) (= y a119))
  (and (= x a118) (= y a120))
  (and (= x a119) (= y a120))
  (and (= x a119) (= y a121))
  (and (= x a120) (= y a121))
  (and (= x a120) (= y a122))
  (and (= x a121) (= y a122))
  (and (= x a121) (= y a123))
  (and (= x a122) (= y a123))
  (and (= x a122) (= y a124))
  (and (= x a123) (= y a124))
  (and (= x a123) (= y a125))
  (and (= x a124) (= y a125))
  (and (= x a124) (= y a126))
  (and (= x a125) (= y a126))
  (and (= x a125) (= y a127))
  (and (= x a126) (= y a127))
  (and (= x a126) (= y a128))
  (and (= x a127) (= y a128))
  (and (= x a127) (= y a129))
  (and (= x a128) (= y a129))
  (and (= x a128) (= y a130))
  (and (= x a129) (= y a130))
  (and (= x a129) (= y a131))
  (and (= x a130) (= y a131))
  (and (= x a130) (= y a132))
  (and (= x a131) (= y a132))
  (and (= x a131) (= y a133))
  (and (= x a132) (= y a133))
  (and (= x a132) (= y a134))
  (and (= x a133) (= y a134))
  (and (= x a133) (= y a135))
  (and (= x a134) (= y a135))
  (and (= x a134) (= y a136))
  (and (= x a135) (= y a136))
  (and (= x a135) (= y a137))
  (and (= x a136) (= y a137))
  (and (= x a136) (= y a138))
  (and (= x a137) (= y a138))
  (and (= x a137) (= y a139))
  (and (= x a138) (= y a139))
  (and (= x a138) (= y a140))
  (and (= x a139) (= y a140))
  (and (= x a139) (= y a141))
  (and (= x a140) (= y a141))
  (and (= x a140) (= y a142))
  (and (= x a141) (= y a142))
  (and (= x a141) (= y a143))
  (and (= x a142) (= y a143))
  (and (= x a142) (= y a144))
  (and (= x a143) (= y a144))
  (and (= x a143) (= y a145))
  (and (= x a144) (= y a145))
  (and (= x a144) (= y a146))
  (and (= x a145) (= y a146))
  (and (= x a145) (= y a147))
  (and (= x a146) (= y a147))
  (and (= x a146) (= y a148))
  (and (= x a147) (= y a148))
  (and (= x a147) (= y a149))
  (and (= x a148) (= y a149))
  (and (= x a148) (= y a150))
  (and (= x a149) (= y a150))
  (and (= x a149) (= y a151))
  (and (= x a150) (= y a151))
  (and (= x a150) (= y a152))
  (and (= x a151) (= y a152))
  (and (= x a151) (= y a153))
  (and (= x a152) (= y a153))
  (and (= x a152) (= y a154))
  (and (= x a153) (= y a154))
  (and (= x a153) (= y a155))
  (and (= x a154) (= y a155))
  (and (= x a154) (= y a156))
  (and (= x a155) (= y a156))
  (and (= x a155) (= y a157))
  (and (= x a156) (= y a157))
  (and (= x a156) (= y a158))
  (and (= x a157) (= y a158))
  (and (= x a157) (= y a159))
  (and (= x a158) (= y a159))
  (and (= x a158) (= y a160))
  (and (= x a159) (= y a160))
  (and (= x a159) (= y a161))
  (and (= x a160) (= y a161))
  (and (= x a160) (= y a162))
  (and (= x a161) (= y a162))
  (and (= x a161) (= y a163))
  (and (= x a162) (= y a163))
  (and (= x a162) (= y a164))
  (and (= x a163) (= y a164))
  (and (= x a163) (= y a165))
  (and (= x a164) (= y a165))
  (and (= x a164) (= y a166))
  (and (= x a165) (= y a166))
  (and (= x a165) (= y a167))
  (and (= x a166) (= y a167))
  (and (= x a166) (= y a168))
  (and (= x a167) (= y a168))
  (and (= x a167) (= y a169))
  (and (= x a168) (= y a169))
  (and (= x a168) (= y a170))
  (and (= x a169) (= y a170))
  (and (= x a169) (= y a171))
  (and (= x a170) (= y a171))
  (and (= x a170) (= y a172))
  (and (= x a171) (= y a172))
  (and (= x a171) (= y a173))
  (and (= x a172) (= y a173))
  (and (= x a172) (= y a174))
  (and (= x a173) (= y a174))
  (and (= x a173) (= y a175))
  (and (= x a174) (= y a175))
  (and (= x a174) (= y a176))
  (and (= x a175) (= y a176))
  (and (= x a175) (= y a177))
  (and (= x a176) (= y a177))
  (and (= x a176) (= y a178))
  (and (= x a177) (= y a178))
  (and (= x a177) (= y a179))
  (and (= x a178) (= y a179))
  (and (= x a178) (= y a180))
  (and (= x a179) (= y a180))
  (and (= x a179) (= y a181))
  (and (= x a180) (= y a181))
  (and (= x a180) (= y a182))
  (and (= x a181) (= y a182))
  (and (= x a181) (= y a183))
  (and (= x a182) (= y a183))
  (and (= x a182) (= y a184))
  (and (= x a183) (= y a184))
  (and (= x a183) (= y a185))
  (and (= x a184) (= y a185))
  (and (= x a184) (= y a186))
  (and (= x a185) (= y a186))
  (and (= x a185) (= y a187))
  (and (= x a186) (= y a187))
  (and (= x a186) (= y a188))
  (and (= x a187) (= y a188))
  (and (= x a187) (= y a189))
  (and (= x a188) (= y a189))
  (and (= x a188) (= y a190))
  (and (= x a189) (= y a190))
  (and (= x a189) (= y a191))
  (and (= x a190) (= y a191))
  (and (= x a190) (= y a192))
  (and (= x a191) (= y a192))
  (and (= x a191) (= y a193))
  (and (= x a192) (= y a193))
  (and (= x a192) (= y a194))
  (and (= x a193) (= y a194))
  (and (= x a193) (= y a195))
  (and (= x a194) (= y a195))
  (and (= x a194) (= y a196))
  (and (= x a195) (= y a196))
  (and (= x a195) (= y a197))
  (and (= x a196) (= y a197))
  (and (= x a196) (= y a198))
  (and (= x a197) (= y a198))
  (and (= x a197) (= y a199))
  (and (= x a198) (= y a199))
  (and (= x a198) (= y a200))
  (and (= x a199) (= y a200))
  (and (= x a199) (= y a201))
  (and (= x a200) (= y a201))
  (and (= x a200) (= y a202))
  (and (= x a201) (= y a202))
  (and (= x a201) (= y a203))
  (and (= x a202) (= y a203))
  (and (= x a202) (= y a204))
  (and (= x a203) (= y a204))
  (and (= x a203) (= y a205))
  (and (= x a204) (= y a205))
  (and (= x a204) (= y a206))
  (and (= x a205) (= y a206))
  (and (= x a205) (= y a207))
  (and (= x a206) (= y a207))
  (and (= x a206) (= y a208))
  (and (= x a207) (= y a208))
  (and (= x a207) (= y a209))
  (and (= x a208) (= y a209))
  (and (= x a208) (= y a210))
  (and (= x a209) (= y a210))
  (and (= x a209) (= y a211))
  (and (= x a210) (= y a211))
  (and (= x a210) (= y a212))
  (and (= x a211) (= y a212))
  (and (= x a211) (= y a213))
  (and (= x a212) (= y a213))
  (and (= x a212) (= y a214))
  (and (= x a213) (= y a214))
  (and (= x a213) (= y a215))
  (and (= x a214) (= y a215))
  (and (= x a214) (= y a216))
  (and (= x a215) (= y a216))
  (and (= x a215) (= y a217))
  (and (= x a216) (= y a217))
  (and (= x a216) (= y a218))
  (and (= x a217) (= y a218))
  (and (= x a217) (= y a219))
  (and (= x a218) (= y a219))
  (and (= x a218) (= y a220))
  (and (= x a219) (= y a220))
  (and (= x a219) (= y a221))
  (and (= x a220) (= y a221))
  (and (= x a220) (= y a222))
  (and (= x a221) (= y a222))
  (and (= x a221) (= y a223))
  (and (= x a222) (= y a223))
  (and (= x a222) (= y a224))
  (and (= x a223) (= y a224))
  (and (= x a223) (= y a225))
  (and (= x a224) (= y a225))
  (and (= x a224) (= y a226))
  (and (= x a225) (= y a226))
  (and (= x a225) (= y a227))
  (and (= x a226) (= y a227))
  (and (= x a226) (= y a228))
  (and (= x a227) (= y a228))
  (and (= x a227) (= y a229))
  (and (= x a228) (= y a229))
  (and (= x a228) (= y a230))
  (and (= x a229) (= y a230))
  (and (= x a229) (= y a231))
  (and (= x a230) (= y a231))
  (and (= x a230) (= y a232))
  (and (= x a231) (= y a232))
  (and (= x a231) (= y a233))
  (and (= x a232) (= y a233))
  (and (= x a232) (= y a234))
  (and (= x a233) (= y a234))
  (and (= x a233) (= y a235))
  (and (= x a234) (= y a235))
  (and (= x a234) (= y a236))
  (and (= x a235) (= y a236))
  (and (= x a235) (= y a237))
  (and (= x a236) (= y a237))
  (and (= x a236) (= y a238))
  (and (= x a237) (= y a238))
  (and (= x a237) (= y a239))
  (and (= x a238) (= y a239))
  (and (= x a238) (= y a240))
  (and (= x a239) (= y a240))
  (and (= x a239) (= y a241))
  (and (= x a240) (= y a241))
  (and (= x a240) (= y a242))
  (and (= x a241) (= y a242))
  (and (= x a241) (= y a243))
  (and (= x a242) (= y a243))
  (and (= x a242) (= y a244))
  (and (= x a243) (= y a244))
  (and (= x a243) (= y a245))
  (and (= x a244) (= y a245))
  (and (= x a244) (= y a246))
  (and (= x a245) (= y a246))
  (and (= x a245) (= y a247))
  (and (= x a246) (= y a247))
  (and (= x a246) (= y a248))
  (and (= x a247) (= y a248))
  (and (= x a247) (= y a249))
  (and (= x a248) (= y a249))
))
(define-fun p ((x Node) (y Node) (z Node)) Bool (or
  (and (= x a0) (= y a1) (= z a2))
  (and (= x a1) (= y a2) (= z a3))
  (and (= x a2) (= y a3) (= z a4))
  (and (= x a3) (= y a4) (= z a5))
  (and (= x a4) (= y a5) (= z a6))
  (and (= x a5) (= y a6) (= z a7))
  (and (= x a6) (= y a7) (= z a8))
  (and (= x a7) (= y a8) (= z a9))
  (and (= x a8) (= y a9) (= z a10))
  (and (= x a9) (= y a10) (= z a11))
  (and (= x a10) (= y a11) (= z a12))
  (and (= x a11) (= y a12) (= z a13))
  (and (= x a12) (= y a13) (= z a14))
  (and (= x a13) (= y a14) (= z a15))
  (and (= x a14) (= y a15) (= z a16))
  (and (= x a15) (= y a16) (= z a17))
  (and (= x a16) (= y a17) (= z a18))
  (and (= x a17) (= y a18) (= z a19))
  (and (= x a18) (= y a19) (= z a20))
  (and (= x a19) (= y a20) (= z a21))
  (and (= x a20) (= y a21) (= z a22))
  (and (= x a21) (= y a22) (= z a23))
  (and (= x a22) (= y a23) (= z a24))
  (and (= x a23) (= y a24) (= z a25))
  (and (= x a24) (= y a25) (= z a26))
  (and (= x a25) (= y a26) (= z a27))
  (and (= x a26) (= y a27) (= z a28))
  (and (= x a27) (= y a28) (= z a29))
  (and (= x a28) (= y a29) (= z a30))
  (and (= x a29) (= y a30) (= z a31))
  (and (= x a30) (= y a31) (= z a32))
  (and (= x a31) (= y a32) (= z a33))
  (and (= x a32) (= y a33) (= z a34))
  (and (= x a33) (= y a34) (= z a35))
  (and (= x a34) (= y a35) (= z a36))
  (and (= x a35) (= y a36) (= z a37))
  (and (= x a36) (= y a37) (= z a38))
  (and (= x a37) (= y a38) (= z a39))
  (and (= x a38) (= y a39) (= z a40))
  (and (= x a39) (= y a40) (= z a41))
  (and (= x a40) (= y a41) (= z a42))
  (and (= x a41) (= y a42) (= z a43))
  (and (= x a42) (= y a43) (= z a44))
  (and (= x a43) (= y a44) (= z a45))
  (and (= x a44) (= y a45) (= z a46))
  (and (= x a45) (= y a46) (= z a47))
  (and (= x a46) (= y a47) (= z a48))
  (and (= x a47) (= y a48) (= z a49))
  (and (= x a48) (= y a49) (= z a50))
  (and (= x a49) (= y a50) (= z a51))
  (and (= x a50) (= y a51) (= z a52))
  (and (= x a51) (= y a52) (= z a53))
  (and (= x a52) (= y a53) (= z a54))
  (and (= x a53) (= y a54) (= z a55))
  (and (= x a54) (= y a55) (= z a56))
  (and (= x a55) (= y a56) (= z a57))
  (and (= x a56) (= y a57) (= z a58))
  (and (= x a57) (= y a58) (= z a59))
  (and (= x a58) (= y a59) (= z a60))
  (and (= x a59) (= y a60) (= z a61))
  (and (= x a60) (= y a61) (= z a62))
  (and (= x a61) (= y a62) (= z a63))
  (and (= x a62) (= y a63) (= z a64))
  (and (= x a63) (= y a64) (= z a65))
  (and (= x a64) (= y a65) (= z a66))
  (and (= x a65) (= y a66) (= z a67))
  (and (= x a66) (= y a67) (= z a68))
  (and (= x a67) (= y a68) (= z a69))
  (and (= x a68) (= y a69) (= z a70))
  (and (= x a69) (= y a70) (= z a71))
  (and (= x a70) (= y a71) (= z a72))
  (and (= x a71) (= y a72) (= z a73))
  (and (= x a72) (= y a73) (= z a74))
  (and (= x a73) (= y a74) (= z a75))
  (and (= x a74) (= y a75) (= z a76))
  (and (= x a75) (= y a76) (= z a77))
  (and (= x a76) (= y a77) (= z a78))
  (and (= x a77) (= y a78) (= z a79))
  (and (= x a78) (= y a79) (= z a80))
  (and (= x a79) (= y a80) (= z a81))
  (and (= x a80) (= y a81) (= z a82))
  (and (= x a81) (= y a82) (= z a83))
  (and (= x a82) (= y a83) (= z a84))
  (and (= x a83) (= y a84) (= z a85))
  (and (= x a84) (= y a85) (= z a86))
  (and (= x a85) (= y a86) (= z a87))
  (and (= x a86) (= y a87) (= z a88))
  (and (= x a87) (= y a88) (= z a89))
  (and (= x a88) (= y a89) (= z a90))
  (and (= x a89) (= y a90) (= z a91))
  (and (= x a90) (= y a91) (= z a92))
  (and (= x a91) (= y a92) (= z a93))
  (and (= x a92) (= y a93) (= z a94))
  (and (= x a93) (= y a94) (= z a95))
  (and (= x a94) (= y a95) (= z a96))
  (and (= x a95) (= y a96) (= z a97))
  (and (= x a96) (= y a97) (= z a98))
  (and (= x a97) (= y a98) (= z a99))
  (and (= x a98) (= y a99) (= z a100))
  (and (= x a99) (= y a100) (= z a101))
  (and (= x a100) (= y a101) (= z a102))
  (and (= x a101) (= y a102) (= z a103))
  (and (= x a102) (= y a103) (= z a104))
  (and (= x a103) (= y a104) (= z a105))
  (and (= x a104) (= y a105) (= z a106))
  (and (= x a105) (= y a106) (= z a107))
  (and (= x a106) (= y a107) (= z a108))
  (and (= x a107) (= y a108) (= z a109))
  (and (= x a108) (= y a109) (= z a110))
  (and (= x a109) (= y a110) (= z a111))
  (and (= x a110) (= y a111) (= z a112))
  (and (= x a111) (= y a112) (= z a113))
  (and (= x a112) (= y a113) (= z a114))
  (and (= x a113) (= y a114) (= z a115))
  (and (= x a114) (= y a115) (= z a116))
  (and (= x a115) (= y a116) (= z a117))
  (and (= x a116) (= y a117) (= z a118))
  (and (= x a117) (= y a118) (= z a119))
  (and (= x a118) (= y a119) (= z a120))
  (and (= x a119) (= y a120) (= z a121))
  (and (= x a120) (= y a121) (= z a122))
  (and (= x a121) (= y a122) (= z a123))
  (and (= x a122) (= y a123) (= z a124))
  (and (= x a123) (= y a124) (= z a125))
  (and (= x a124) (= y a125) (= z a126))
  (and (= x a125) (= y a126) (= z a127))
  (and (= x a126) (= y a127) (= z a128))
  (and (= x a127) (= y a128) (= z a129))
  (and (= x a128) (= y a129) (= z a130))
  (and (= x a129) (= y a130) (= z a131))
  (and (= x a130) (= y a131) (= z a132))
  (and (= x a131) (= y a132) (= z a133))
  (and (= x a132) (= y a133) (= z a134))
  (and (= x a133) (= y a134) (= z a135))
  (and (= x a134) (= y a135) (= z a136))
  (and (= x a135) (= y a136) (= z a137))
  (and (= x a136) (= y a137) (= z a138))
  (and (= x a137) (= y a138) (= z a139))
  (and (= x a138) (= y a139) (= z a140))
  (and (= x a139) (= y a140) (= z a141))
  (and (= x a140) (= y a141) (= z a142))
  (and (= x a141) (= y a142) (= z a143))
  (and (= x a142) (= y a143) (= z a144))
  (and (= x a143) (= y a144) (= z a145))
  (and (= x a144) (= y a145) (= z a146))
  (and (= x a145) (= y a146) (= z a147))
  (and (= x a146) (= y a147) (= z a148))
  (and (= x a147) (= y a148) (= z a149))
  (and (= x a148) (= y a149) (= z a150))
  (and (= x a149) (= y a150) (= z a151))
  (and (= x a150) (= y a151) (= z a152))
  (and (= x a151) (= y a152) (= z a153))
  (and (= x a152) (= y a153) (= z a154))
  (and (= x a153) (= y a154) (= z a155))
  (and (= x a154) (= y a155) (= z a156))
  (and (= x a155) (= y a156) (= z a157))
  (and (= x a156) (= y a157) (= z a158))
  (and (= x a157) (= y a158) (= z a159))
  (and (= x a158) (= y a159) (= z a160))
  (and (= x a159) (= y a160) (= z a161))
  (and (= x a160) (= y a161) (= z a162))
  (and (= x a161) (= y a162) (= z a163))
  (and (= x a162) (= y a163) (= z a164))
  (and (= x a163) (= y a164) (= z a165))
  (and (= x a164) (= y a165) (= z a166))
  (and (= x a165) (= y a166) (= z a167))
  (and (= x a166) (= y a167) (= z a168))
  (and (= x a167) (= y a168) (= z a169))
  (and (= x a168) (= y a169) (= z a170))
  (and (= x a169) (= y a170) (= z a171))
  (and (= x a170) (= y a171) (= z a172))
  (and (= x a171) (= y a172) (= z a173))
  (and (= x a172) (= y a173) (= z a174))
  (and (= x a173) (= y a174) (= z a175))
  (and (= x a174) (= y a175) (= z a176))
  (and (= x a175) (= y a176) (= z a177))
  (and (= x a176) (= y a177) (= z a178))
  (and (= x a177) (= y a178) (= z a179))
  (and (= x a178) (= y a179) (= z a180))
  (and (= x a179) (= y a180) (= z a181))
  (and (= x a180) (= y a181) (= z a182))
  (and (= x a181) (= y a182) (= z a183))
  (and (= x a182) (= y a183) (= z a184))
  (and (= x a183) (= y a184) (= z a185))
  (and (= x a184) (= y a185) (= z a186))
  (and (= x a185) (= y a186) (= z a187))
  (and (= x a186) (= y a187) (= z a188))
  (and (= x a187) (= y a188) (= z a189))
  (and (= x a188) (= y a189) (= z a190))
  (and (= x a189) (= y a190) (= z a191))
  (and (= x a190) (= y a191) (= z a192))
  (and (= x a191) (= y a192) (= z a193))
  (and (= x a192) (= y a193) (= z a194))
  (and (= x a193) (= y a194) (= z a195))
  (and (= x a194) (= y a195) (= z a196))
  (and (= x a195) (= y a196) (= z a197))
  (and (= x a196) (= y a197) (= z a198))
  (and (= x a197) (= y a198) (= z a199))
  (and (= x a198) (= y a199) (= z a200))
  (and (= x a199) (= y a200) (= z a201))
  (and (= x a200) (= y a201) (= z a202))
  (and (= x a201) (= y a202) (= z a203))
  (and (= x a202) (= y a203) (= z a204))
  (and (= x a203) (= y a204) (= z a205))
  (and (= x a204) (= y a205) (= z a206))
  (and (= x a205) (= y a206) (= z a207))
  (and (= x a206) (= y a207) (= z a208))
  (and (= x a207) (= y a208) (= z a209))
  (and (= x a208) (= y a209) (= z a210))
  (and (= x a209) (= y a210) (= z a211))
  (and (= x a210) (= y a211) (= z a212))
  (and (= x a211) (= y a212) (= z a213))
  (and (= x a212) (= y a213) (= z a214))
  (and (= x a213) (= y a214) (= z a215))
  (and (= x a214) (= y a215) (= z a216))
  (and (= x a215) (= y a216) (= z a217))
  (and (= x a216) (= y a217) (= z a218))
  (and (= x a217) (= y a218) (= z a219))
  (and (= x a218) (= y a219) (= z a220))
  (and (= x a219) (= y a220) (= z a221))
  (and (= x a220) (= y a221) (= z a222))
  (and (= x a221) (= y a222) (= z a223))
  (and (= x a222) (= y a223) (= z a224))
  (and (= x a223) (= y a224) (= z a225))
  (and (= x a224) (= y a225) (= z a226))
  (and (= x a225) (= y a226) (= z a227))
  (and (= x a226) (= y a227) (= z a228))
  (and (= x a227) (= y a228) (= z a229))
  (and (= x a228) (= y a229) (= z a230))
  (and (= x a229) (= y a230) (= z a231))
  (and (= x a230) (= y a231) (= z a232))
  (and (= x a231) (= y a232) (= z a233))
  (and (= x a232) (= y a233) (= z a234))
  (and (= x a233) (= y a234) (= z a235))
  (and (= x a234) (= y a235) (= z a236))
  (and (= x a235) (= y a236) (= z a237))
  (and (= x a236) (= y a237) (= z a238))
  (and (= x a237) (= y a238) (= z a239))
  (and (= x a238) (= y a239) (= z a240))
  (and (= x a239) (= y a240) (= z a241))
  (and (= x a240) (= y a241) (= z a242))
  (and (= x a241) (= y a242) (= z a243))
  (and (= x a242) (= y a243) (= z a244))
  (and (= x a243) (= y a244) (= z a245))
  (and (= x a244) (= y a245) (= z a246))
  (and (= x a245) (= y a246) (= z a247))
  (and (= x a246) (= y a247) (= z a248))
  (and (= x a247) (= y a248) (= z a249))
))
(assert (forall ((x Node) (y Node) (z Node))
                (= (p x y z)
                   (and (edge x y) (edge y z) (edge x z)) )))

(check-sat)
(exit)
